NAME : amz2061.155169_153669.tour
COMMENT : Cost = 155169_153669
COMMENT : Found by LKH-AMZ [Keld Helsgaun] Sun May 11 15:06:08 2025
COMMENT : TW viol.: 0 #: 0
TYPE : TOUR
DIMENSION : 163
TOUR_SECTION
103
160
127
60
126
125
8
123
85
12
142
99
143
93
151
23
76
36
155
69
70
134
157
96
129
146
63
9
73
116
80
92
30
29
98
31
144
89
128
10
78
115
131
75
83
135
156
61
40
114
94
26
1
149
27
137
81
5
130
53
91
86
71
106
49
2
55
145
19
120
108
122
158
58
50
132
121
117
62
140
46
124
111
148
150
68
21
95
112
56
119
136
39
90
109
54
79
141
74
133
87
7
3
15
59
113
25
147
52
82
33
24
161
17
159
57
163
11
64
102
22
72
44
43
16
6
162
47
14
34
41
77
51
20
153
48
32
101
152
42
139
4
84
13
104
18
38
118
66
110
28
154
138
105
67
107
88
35
65
45
97
37
100
-1
EOF
